100 1279816384
81 66 50 65 48 94 37 26 85 45 27 82 70 38 15 2 84 71 64 14 35 6 4 13 30 57 75 31 80 68 33 43 77 61 22 21 99 73 87 11 7 9 28 8 58 86 100 53 5 83 69 42 96 1 29 17 97 12 25 56 47 23 88 93 41 91 51 54 95 74 90 63 39 59 40 67 55 36 60 62 52 34 78 44 72 20 19 10 24 49 3 76 92 46 16 18 32 98 79 89 
